
<<< setup


<<< generate

CPXPARAM_TimeLimit                               2
Tried aggregator 1 time.
MIP Presolve eliminated 29 rows and 29 columns.
Reduced MIP has 961 rows, 1771 columns, and 5254 nonzeros.
Reduced MIP has 900 binaries, 871 generals, 0 SOSs, and 0 indicators.
Presolve time = 0,00 sec. (2,90 ticks)
Probing fixed 29 vars, tightened 0 bounds.
Probing time = 0,02 sec. (10,57 ticks)
Cover probing fixed 0 vars, tightened 841 bounds.
Tried aggregator 1 time.
MIP Presolve eliminated 31 rows and 59 columns.
MIP Presolve modified 842 coefficients.
Reduced MIP has 930 rows, 1712 columns, and 5106 nonzeros.
Reduced MIP has 871 binaries, 841 generals, 0 SOSs, and 0 indicators.
Presolve time = 0,01 sec. (5,08 ticks)
Probing time = 0,01 sec. (3,18 ticks)
Clique table members: 60.
MIP emphasis: balance optimality and feasibility.
MIP search method: dynamic search.
Parallel mode: deterministic, using up to 4 threads.
Root relaxation solution time = 0,02 sec. (19,23 ticks)

        Nodes                                         Cuts/
   Node  Left     Objective  IInf  Best Integer    Best Bound    ItCnt     Gap

*     0+    0                           76,8552        0,0000           100,00%
      0     0       43,8013    82       76,8552       43,8013      542   43,01%
*     0+    0                           76,2372       43,8013            42,55%
      0     0       45,7849   101       76,2372      Cuts: 52     1553   39,94%
      0     0       45,9492   126       76,2372      Cuts: 35     2039   39,73%
      0     0       45,9492   116       76,2372      Cuts: 14     2268   39,73%
      0     0       46,0595   112       76,2372      Cuts: 22     2950   39,58%
*     0+    0                           50,5570       46,0595             8,90%
      0     0       46,0595   125       50,5570      Cuts: 16     3296    8,90%
*     0+    0                           48,4880       46,0595             5,01%
      0     0       46,0597   127       48,4880       Cuts: 7     3424    5,01%
*     0+    0                           47,9190       46,0597             3,88%
*     0+    0                           47,4814       46,0597             2,99%

Repeating presolve.
Tried aggregator 2 times.
MIP Presolve eliminated 328 rows and 665 columns.
Aggregator did 2 substitutions.
Reduced MIP has 600 rows, 1045 columns, and 3116 nonzeros.
Reduced MIP has 532 binaries, 513 generals, 0 SOSs, and 0 indicators.
Presolve time = 0,00 sec. (2,99 ticks)
Probing fixed 2 vars, tightened 6 bounds.
Probing time = 0,01 sec. (4,46 ticks)
Cover probing fixed 0 vars, tightened 73 bounds.
Tried aggregator 2 times.
MIP Presolve eliminated 2 rows and 4 columns.
MIP Presolve modified 77 coefficients.
Aggregator did 2 substitutions.
Reduced MIP has 596 rows, 1039 columns, and 3100 nonzeros.
Reduced MIP has 528 binaries, 511 generals, 0 SOSs, and 0 indicators.
Presolve time = 0,00 sec. (3,09 ticks)
Represolve time = 0,02 sec. (15,61 ticks)
Probing fixed 0 vars, tightened 4 bounds.
Probing time = 0,01 sec. (4,34 ticks)
Clique table members: 368.
MIP emphasis: balance optimality and feasibility.
MIP search method: dynamic search.
Parallel mode: deterministic, using up to 4 threads.
Root relaxation solution time = 0,02 sec. (13,49 ticks)

        Nodes                                         Cuts/
   Node  Left     Objective  IInf  Best Integer    Best Bound    ItCnt     Gap

*     0+    0                           47,4814       46,0597             2,99%
      0     0       46,0597   106       47,4814       46,0597     3915    2,99%
      0     0       46,1043   105       47,4814      Cuts: 29     4214    2,90%
      0     0       46,1563   124       47,4814      Cuts: 39     4578    2,79%
      0     0       46,1563   122       47,4814      Cuts: 24     4755    2,79%
      0     0       46,1563    69       47,4814       Cuts: 3     4891    2,79%
*     0+    0                           46,1563       46,1563             0,00%
      0     0        cutoff             46,1563       46,1563     5178    0,00%
Elapsed time = 1,27 sec. (796,96 ticks, tree = 0,01 MB, solutions = 7)

Cover cuts applied:  8
Implied bound cuts applied:  31
Flow cuts applied:  45
Zero-half cuts applied:  2

Root node processing (before b&c):
  Real time             =    1,27 sec. (797,11 ticks)
Parallel b&c, 4 threads:
  Real time             =    0,00 sec. (0,00 ticks)
  Sync time (average)   =    0,00 sec.
  Wait time (average)   =    0,00 sec.
                          ------------
Total (root+branch&cut) =    1,27 sec. (797,11 ticks)

<<< solve


OBJECTIVE: 46.1563
12/18/2018 23:57:20 408
solving time ~= 1283.652099609
Done
 [[0 16 0 0 0 0 0 0 0 0 0 0 0 0 0 0 0 0 0 0 0 0 0 0 0 0 0 0 0 0]
         [0 0 0 0 15 0 0 0 0 0 0 0 0 0 0 0 0 0 0 0 0 0 0 0 0 0 0 0 0 0]
         [0 0 0 0 0 0 0 0 0 11 0 0 0 0 0 0 0 0 0 0 0 0 0 0 0 0 0 0 0 0]
         [17 0 0 0 0 0 0 0 0 0 0 0 0 0 0 0 0 0 0 0 0 0 0 0 0 0 0 0 0 0]
         [0 0 0 0 0 0 0 14 0 0 0 0 0 0 0 0 0 0 0 0 0 0 0 0 0 0 0 0 0 0]
         [0 0 0 0 0 0 19 0 0 0 0 0 0 0 0 0 0 0 0 0 0 0 0 0 0 0 0 0 0 0]
         [0 0 0 18 0 0 0 0 0 0 0 0 0 0 0 0 0 0 0 0 0 0 0 0 0 0 0 0 0 0]
         [0 0 0 0 0 0 0 0 13 0 0 0 0 0 0 0 0 0 0 0 0 0 0 0 0 0 0 0 0 0]
         [0 0 12 0 0 0 0 0 0 0 0 0 0 0 0 0 0 0 0 0 0 0 0 0 0 0 0 0 0 0]
         [0 0 0 0 0 0 0 0 0 0 0 0 0 0 0 0 0 0 0 0 0 0 0 0 0 0 0 0 10 0]
         [0 0 0 0 0 20 0 0 0 0 0 0 0 0 0 0 0 0 0 0 0 0 0 0 0 0 0 0 0 0]
         [0 0 0 0 0 0 0 0 0 0 0 0 0 0 0 28 0 0 0 0 0 0 0 0 0 0 0 0 0 0]
         [0 0 0 0 0 0 0 0 0 0 0 29 0 0 0 0 0 0 0 0 0 0 0 0 0 0 0 0 0 0]
         [0 0 0 0 0 0 0 0 0 0 0 0 30 0 0 0 0 0 0 0 0 0 0 0 0 0 0 0 0 0]
         [0 0 0 0 0 0 0 0 0 0 21 0 0 0 0 0 0 0 0 0 0 0 0 0 0 0 0 0 0 0]
         [0 0 0 0 0 0 0 0 0 0 0 0 0 0 0 0 0 0 0 27 0 0 0 0 0 0 0 0 0 0]
         [0 0 0 0 0 0 0 0 0 0 0 0 0 0 0 0 0 2 0 0 0 0 0 0 0 0 0 0 0 0]
         [0 0 0 0 0 0 0 0 0 0 0 0 0 1 0 0 0 0 0 0 0 0 0 0 0 0 0 0 0 0]
         [0 0 0 0 0 0 0 0 0 0 0 0 0 0 22 0 0 0 0 0 0 0 0 0 0 0 0 0 0 0]
         [0 0 0 0 0 0 0 0 0 0 0 0 0 0 0 0 0 0 0 0 0 0 0 26 0 0 0 0 0 0]
         [0 0 0 0 0 0 0 0 0 0 0 0 0 0 0 0 3 0 0 0 0 0 0 0 0 0 0 0 0 0]
         [0 0 0 0 0 0 0 0 0 0 0 0 0 0 0 0 0 0 0 0 4 0 0 0 0 0 0 0 0 0]
         [0 0 0 0 0 0 0 0 0 0 0 0 0 0 0 0 0 0 23 0 0 0 0 0 0 0 0 0 0 0]
         [0 0 0 0 0 0 0 0 0 0 0 0 0 0 0 0 0 0 0 0 0 0 0 0 0 25 0 0 0 0]
         [0 0 0 0 0 0 0 0 0 0 0 0 0 0 0 0 0 0 0 0 0 5 0 0 0 0 0 0 0 0]
         [0 0 0 0 0 0 0 0 0 0 0 0 0 0 0 0 0 0 0 0 0 0 24 0 0 0 0 0 0 0]
         [0 0 0 0 0 0 0 0 0 0 0 0 0 0 0 0 0 0 0 0 0 0 0 0 6 0 0 0 0 0]
         [0 0 0 0 0 0 0 0 0 0 0 0 0 0 0 0 0 0 0 0 0 0 0 0 0 0 7 0 0 0]
         [0 0 0 0 0 0 0 0 0 0 0 0 0 0 0 0 0 0 0 0 0 0 0 0 0 0 0 0 0 9]
         [0 0 0 0 0 0 0 0 0 0 0 0 0 0 0 0 0 0 0 0 0 0 0 0 0 0 0 8 0 0]]

<<< post process


<<< done

